projected/problems_b25_r0_d7_m100_s666/_DIMACS/b25_d7_r0_s666_050.cnf
p cnf 216 328 25
c p show 1 2 3 4 5 6 7 8 9 10 11 12 13 14 15 16 17 18 19 20 21 22 23 24 25
-26 -4 0
-26 -10 0
-27 10 0
-27 4 0
-28 27 26 0
-29 12 6 0
-30 29 28 0
-31 -10 1 0
-32 4 0
-32 -3 0
-33 32 31 0
-34 33 30 0
-35 10 0
-35 -1 0
-36 -4 3 0
-37 36 0
-37 35 0
-38 4 10 0
-39 -10 -4 0
-40 39 0
-40 38 0
-41 -12 0
-41 -6 0
-42 41 0
-42 40 0
-43 42 37 0
-44 43 0
-44 34 0
-45 24 7 0
-46 -23 -14 0
-47 46 0
-47 45 0
-48 2 0
-48 25 0
-49 -11 18 0
-50 49 48 0
-51 50 0
-51 47 0
-52 51 0
-52 44 0
-53 -23 1 0
-54 -17 0
-54 20 0
-55 54 53 0
-56 -20 23 0
-57 -23 20 0
-58 57 0
-58 56 0
-59 17 16 0
-60 59 0
-60 58 0
-61 60 55 0
-62 12 0
-62 10 0
-63 20 25 0
-64 63 0
-64 62 0
-65 -10 0
-65 7 0
-66 -9 0
-66 19 0
-67 66 65 0
-68 67 64 0
-69 68 61 0
-70 69 52 0
-71 6 0
-71 24 0
-72 -4 0
-72 11 0
-73 72 0
-73 71 0
-74 17 0
-74 -3 0
-75 -20 21 0
-76 75 0
-76 74 0
-77 76 0
-77 73 0
-78 12 9 0
-79 1 0
-79 10 0
-80 -10 0
-80 -1 0
-81 80 79 0
-82 81 78 0
-83 1 7 0
-84 7 -4 0
-85 84 0
-85 83 0
-86 85 0
-86 82 0
-87 -1 0
-87 -7 0
-88 -7 0
-88 4 0
-89 88 87 0
-90 -12 0
-90 -9 0
-91 -1 -10 0
-92 10 1 0
-93 92 0
-93 91 0
-94 93 0
-94 90 0
-95 94 0
-95 89 0
-96 95 86 0
-97 96 0
-97 77 0
-98 -14 0
-98 -19 0
-99 -22 -5 0
-100 99 98 0
-101 18 2 0
-102 2 17 0
-103 -17 -2 0
-104 103 0
-104 102 0
-105 104 101 0
-106 105 100 0
-107 -13 -16 0
-108 16 13 0
-109 108 0
-109 107 0
-110 -18 18 0
-111 110 0
-112 111 109 0
-113 10 -18 0
-114 5 8 0
-115 114 113 0
-116 -5 0
-116 -8 0
-117 -10 0
-117 18 0
-118 117 116 0
-119 118 0
-119 115 0
-120 119 112 0
-121 116 0
-121 117 0
-122 113 0
-122 114 0
-123 122 121 0
-124 13 0
-124 16 0
-125 -16 0
-125 -13 0
-126 125 124 0
-127 18 0
-127 -18 0
-128 127 0
-129 128 0
-129 126 0
-130 129 123 0
-131 130 0
-131 120 0
-132 131 106 0
-133 132 0
-133 97 0
-134 133 70 0
-135 -3 15 0
-136 -25 0
-136 -24 0
-137 136 0
-137 135 0
-138 15 0
-138 -9 0
-139 9 0
-139 -15 0
-140 139 138 0
-141 6 16 0
-142 141 0
-142 140 0
-143 142 137 0
-144 -20 7 0
-145 -8 8 0
-146 145 144 0
-147 -6 -17 0
-148 22 0
-148 -21 0
-149 148 0
-149 147 0
-150 149 146 0
-151 150 0
-151 143 0
-152 -19 0
-152 3 0
-153 1 0
-153 -25 0
-154 153 0
-154 152 0
-155 -25 24 0
-156 -24 25 0
-157 156 0
-157 155 0
-158 10 -6 0
-159 6 -10 0
-160 159 0
-160 158 0
-161 160 0
-161 157 0
-162 161 154 0
-163 2 0
-163 19 0
-164 -16 -5 0
-165 164 0
-165 163 0
-166 14 0
-166 -18 0
-167 -25 0
-167 7 0
-168 167 0
-168 166 0
-169 168 0
-169 165 0
-170 169 0
-170 162 0
-171 170 151 0
-172 -1 -15 0
-173 -20 0
-173 5 0
-174 173 0
-174 172 0
-175 -13 0
-175 -20 0
-176 7 22 0
-177 176 0
-177 175 0
-178 177 174 0
-179 13 20 0
-180 -7 0
-180 -22 0
-181 180 179 0
-182 1 0
-182 15 0
-183 20 -5 0
-184 183 182 0
-185 184 181 0
-186 185 0
-186 178 0
-187 14 22 0
-188 -4 0
-188 24 0
-189 188 187 0
-190 4 -24 0
-191 -14 0
-191 -22 0
-192 191 190 0
-193 192 0
-193 189 0
-194 -12 23 0
-195 -13 8 0
-196 195 194 0
-197 196 193 0
-198 197 0
-198 186 0
-199 -18 -5 0
-200 5 18 0
-201 200 0
-201 199 0
-202 -14 -13 0
-203 202 0
-203 201 0
-204 -12 22 0
-205 204 0
-205 158 0
-206 205 0
-206 203 0
-207 18 14 0
-208 6 0
-208 -21 0
-209 208 0
-209 207 0
-210 -24 0
-210 -10 0
-211 -4 0
-211 -21 0
-212 211 0
-212 210 0
-213 212 209 0
-214 213 0
-214 206 0
-215 214 198 0
-216 215 171 0
216 0
134 0
-35 -31 0
-31 -35 0
-36 -32 0
-32 -36 0
-33 -37 0
-37 -33 0
-40 -28 0
-29 -41 0
-41 -29 0
-42 -30 0
-30 -42 0
-83 -87 0
-87 -83 0
-84 -88 0
-88 -84 0
-89 -85 0
-85 -89 0
-90 -78 0
-78 -90 0
-93 -81 0
-81 -93 0
-82 -94 0
-94 -82 0
-116 -114 0
-113 -117 0
-119 -123 0
-123 -119 0
-109 -126 0
-111 -128 0
-112 -129 0
-179 -175 0
-180 -176 0
-181 -177 0
-172 -182 0
-182 -172 0
-173 -183 0
-183 -173 0
-184 -174 0
-174 -184 0
-188 -190 0
-190 -188 0
-187 -191 0
