projected/problems_b25_r0_d7_m100_s666/b25_d7_r0_s666_050.smt2
(set-logic QF_UF)
(declare-fun A0 () Bool)
(declare-fun A1 () Bool)
(declare-fun A2 () Bool)
(declare-fun A3 () Bool)
(declare-fun A4 () Bool)
(declare-fun A5 () Bool)
(declare-fun A6 () Bool)
(declare-fun A7 () Bool)
(declare-fun A8 () Bool)
(declare-fun A9 () Bool)
(declare-fun A10 () Bool)
(declare-fun A11 () Bool)
(declare-fun A12 () Bool)
(declare-fun A13 () Bool)
(declare-fun A14 () Bool)
(declare-fun A15 () Bool)
(declare-fun A16 () Bool)
(declare-fun A17 () Bool)
(declare-fun A18 () Bool)
(declare-fun A19 () Bool)
(declare-fun A20 () Bool)
(declare-fun A21 () Bool)
(declare-fun A22 () Bool)
(declare-fun A23 () Bool)
(declare-fun A24 () Bool)
(assert (let ((.def_0 (not A0))) (let ((.def_1 (and A9 .def_0))) (let ((.def_2 (not .def_1))) (let ((.def_3 (not A3))) (let ((.def_4 (or .def_3 A2))) (let ((.def_5 (not .def_4))) (let ((.def_6 (or .def_5 .def_2))) (let ((.def_7 (not .def_6))) (let ((.def_8 (= A9 .def_3))) (let ((.def_9 (or A11 A5))) (let ((.def_10 (not .def_9))) (let ((.def_11 (and .def_10 .def_8))) (let ((.def_12 (not .def_11))) (let ((.def_13 (= .def_12 .def_7))) (let ((.def_14 (not .def_13))) (let ((.def_15 (or A23 A6))) (let ((.def_16 (not A13))) (let ((.def_17 (not A22))) (let ((.def_18 (or .def_17 .def_16))) (let ((.def_19 (and .def_18 .def_15))) (let ((.def_20 (and A1 A24))) (let ((.def_21 (not .def_20))) (let ((.def_22 (not A17))) (let ((.def_23 (and A10 .def_22))) (let ((.def_24 (and .def_23 .def_21))) (let ((.def_25 (not .def_24))) (let ((.def_26 (and .def_25 .def_19))) (let ((.def_27 (not .def_26))) (let ((.def_28 (or .def_27 .def_14))) (let ((.def_29 (or .def_17 A0))) (let ((.def_30 (not .def_29))) (let ((.def_31 (not A19))) (let ((.def_32 (or A16 .def_31))) (let ((.def_33 (and .def_32 .def_30))) (let ((.def_34 (not .def_33))) (let ((.def_35 (= A22 A19))) (let ((.def_36 (not .def_35))) (let ((.def_37 (not A15))) (let ((.def_38 (not A16))) (let ((.def_39 (and .def_38 .def_37))) (let ((.def_40 (or .def_39 .def_36))) (let ((.def_41 (not .def_40))) (let ((.def_42 (or .def_41 .def_34))) (let ((.def_43 (and A11 A9))) (let ((.def_44 (not .def_43))) (let ((.def_45 (or A19 A24))) (let ((.def_46 (not .def_45))) (let ((.def_47 (or .def_46 .def_44))) (let ((.def_48 (not A6))) (let ((.def_49 (or A9 .def_48))) (let ((.def_50 (not .def_49))) (let ((.def_51 (not A18))) (let ((.def_52 (or A8 .def_51))) (let ((.def_53 (not .def_52))) (let ((.def_54 (or .def_53 .def_50))) (let ((.def_55 (not .def_54))) (let ((.def_56 (and .def_55 .def_47))) (let ((.def_57 (not .def_56))) (let ((.def_58 (or .def_57 .def_42))) (let ((.def_59 (not .def_58))) (let ((.def_60 (and .def_59 .def_28))) (let ((.def_61 (not .def_60))) (let ((.def_62 (not A23))) (let ((.def_63 (not A5))) (let ((.def_64 (or .def_63 .def_62))) (let ((.def_65 (not .def_64))) (let ((.def_66 (not A10))) (let ((.def_67 (or A3 .def_66))) (let ((.def_68 (not .def_67))) (let ((.def_69 (and .def_68 .def_65))) (let ((.def_70 (not .def_69))) (let ((.def_71 (not A2))) (let ((.def_72 (and A16 .def_71))) (let ((.def_73 (not .def_72))) (let ((.def_74 (or .def_31 A20))) (let ((.def_75 (not .def_74))) (let ((.def_76 (or .def_75 .def_73))) (let ((.def_77 (or .def_76 .def_70))) (let ((.def_78 (or A0 A6))) (let ((.def_79 (not .def_78))) (let ((.def_80 (or A6 .def_3))) (let ((.def_81 (not .def_80))) (let ((.def_82 (or .def_81 .def_79))) (let ((.def_83 (not .def_82))) (let ((.def_84 (not A8))) (let ((.def_85 (not A11))) (let ((.def_86 (and .def_85 .def_84))) (let ((.def_87 (not .def_86))) (let ((.def_88 (not A9))) (let ((.def_89 (= .def_88 A0))) (let ((.def_90 (not .def_89))) (let ((.def_91 (or .def_90 .def_87))) (let ((.def_92 (not .def_91))) (let ((.def_93 (= .def_92 .def_83))) (let ((.def_94 (or .def_93 .def_77))) (let ((.def_95 (not .def_94))) (let ((.def_96 (and .def_16 .def_51))) (let ((.def_97 (not .def_96))) (let ((.def_98 (not A4))) (let ((.def_99 (not A21))) (let ((.def_100 (or .def_99 .def_98))) (let ((.def_101 (not .def_100))) (let ((.def_102 (and .def_101 .def_97))) (let ((.def_103 (not .def_102))) (let ((.def_104 (not A1))) (let ((.def_105 (and .def_22 .def_104))) (let ((.def_106 (= A16 .def_104))) (let ((.def_107 (not .def_106))) (let ((.def_108 (and .def_107 .def_105))) (let ((.def_109 (not .def_108))) (let ((.def_110 (or .def_109 .def_103))) (let ((.def_111 (not .def_110))) (let ((.def_112 (not A7))) (let ((.def_113 (and .def_98 .def_112))) (let ((.def_114 (or A9 .def_22))) (let ((.def_115 (= .def_114 .def_113))) (let ((.def_116 (not .def_115))) (let ((.def_117 (= .def_37 A12))) (let ((.def_118 (= A17 A17))) (let ((.def_119 (or .def_118 .def_117))) (let ((.def_120 (= .def_119 .def_116))) (let ((.def_121 (not .def_120))) (let ((.def_122 (and .def_121 .def_111))) (let ((.def_123 (not .def_122))) (let ((.def_124 (and .def_123 .def_95))) (let ((.def_125 (or .def_124 .def_61))) (let ((.def_126 (not .def_125))) (let ((.def_127 (or .def_71 A14))) (let ((.def_128 (not .def_127))) (let ((.def_129 (not A24))) (let ((.def_130 (and .def_129 .def_62))) (let ((.def_131 (not .def_130))) (let ((.def_132 (or .def_131 .def_128))) (let ((.def_133 (= A8 A14))) (let ((.def_134 (and .def_63 .def_37))) (let ((.def_135 (or .def_134 .def_133))) (let ((.def_136 (and .def_135 .def_132))) (let ((.def_137 (not .def_136))) (let ((.def_138 (and A19 .def_48))) (let ((.def_139 (and A7 .def_112))) (let ((.def_140 (and .def_139 .def_138))) (let ((.def_141 (not .def_140))) (let ((.def_142 (or .def_63 .def_38))) (let ((.def_143 (not .def_142))) (let ((.def_144 (or .def_99 A20))) (let ((.def_145 (or .def_144 .def_143))) (let ((.def_146 (not .def_145))) (let ((.def_147 (or .def_146 .def_141))) (let ((.def_148 (and .def_147 .def_137))) (let ((.def_149 (and .def_51 A2))) (let ((.def_150 (or .def_0 A24))) (let ((.def_151 (not .def_150))) (let ((.def_152 (and .def_151 .def_149))) (let ((.def_153 (not .def_152))) (let ((.def_154 (= A23 A24))) (let ((.def_155 (= .def_63 .def_88))) (let ((.def_156 (and .def_155 .def_154))) (let ((.def_157 (not .def_156))) (let ((.def_158 (and .def_157 .def_153))) (let ((.def_159 (not .def_158))) (let ((.def_160 (and A1 A18))) (let ((.def_161 (or .def_37 .def_98))) (let ((.def_162 (and .def_161 .def_160))) (let ((.def_163 (not .def_162))) (let ((.def_164 (or .def_16 A17))) (let ((.def_165 (and .def_129 A6))) (let ((.def_166 (not .def_165))) (let ((.def_167 (or .def_166 .def_164))) (let ((.def_168 (or .def_167 .def_163))) (let ((.def_169 (not .def_168))) (let ((.def_170 (and .def_169 .def_159))) (let ((.def_171 (or .def_170 .def_148))) (let ((.def_172 (or A12 A19))) (let ((.def_173 (and .def_48 .def_99))) (let ((.def_174 (or .def_173 .def_172))) (let ((.def_175 (not A14))) (let ((.def_176 (or .def_0 .def_175))) (let ((.def_177 (not .def_176))) (let ((.def_178 (and .def_31 A4))) (let ((.def_179 (not .def_178))) (let ((.def_180 (or .def_179 .def_177))) (let ((.def_181 (not .def_180))) (let ((.def_182 (= .def_181 .def_174))) (let ((.def_183 (not .def_182))) (let ((.def_184 (and .def_3 A23))) (let ((.def_185 (not .def_184))) (let ((.def_186 (or A13 A21))) (let ((.def_187 (= .def_186 .def_185))) (let ((.def_188 (not .def_187))) (let ((.def_189 (or .def_85 A22))) (let ((.def_190 (not .def_189))) (let ((.def_191 (and A12 .def_112))) (let ((.def_192 (and .def_191 .def_190))) (let ((.def_193 (and .def_192 .def_188))) (let ((.def_194 (or .def_193 .def_183))) (let ((.def_195 (= .def_98 A17))) (let ((.def_196 (not .def_195))) (let ((.def_197 (and A13 A12))) (let ((.def_198 (or .def_197 .def_196))) (let ((.def_199 (or A9 .def_63))) (let ((.def_200 (not .def_199))) (let ((.def_201 (and A11 .def_99))) (let ((.def_202 (or .def_201 .def_200))) (let ((.def_203 (or .def_202 .def_198))) (let ((.def_204 (not .def_203))) (let ((.def_205 (or A17 A13))) (let ((.def_206 (not A20))) (let ((.def_207 (and A5 .def_206))) (let ((.def_208 (and .def_207 .def_205))) (let ((.def_209 (not .def_208))) (let ((.def_210 (or A23 A9))) (let ((.def_211 (not .def_210))) (let ((.def_212 (or A3 A20))) (let ((.def_213 (not .def_212))) (let ((.def_214 (and .def_213 .def_211))) (let ((.def_215 (not .def_214))) (let ((.def_216 (and .def_215 .def_209))) (let ((.def_217 (not .def_216))) (let ((.def_218 (and .def_217 .def_204))) (let ((.def_219 (not .def_218))) (let ((.def_220 (and .def_219 .def_194))) (let ((.def_221 (not .def_220))) (let ((.def_222 (or .def_221 .def_171))) (let ((.def_223 (not .def_222))) (let ((.def_224 (or .def_223 .def_126))) (let ((.def_225 (not .def_224))) .def_225)))))))))))))))))))))))))))))))))))))))))))))))))))))))))))))))))))))))))))))))))))))))))))))))))))))))))))))))))))))))))))))))))))))))))))))))))))))))))))))))))))))))))))))))))))))))))))))))))))))))))))))))))))))))))))))))))))
(check-sat)
